Mack/Bortfeldt(2008)
Bin-Packing-Problem
BP-RG/SBSBPP/SSSCSP
Testcase-ID	3
Problem-ID	28
no_item_types	8
no_items	962
CONTAINER_DATA (l,w,h)	485	131	118
ITEMS_DATA:
Type	x	y	z	no_items
1	104	99	74	111
2	90	85	59	118
3	115	74	44	124
4	99	98	33	116
5	75	58	57	137
6	79	74	35	122
7	55	46	31	121
8	57	37	30	113
